row=10;
column=10;
Board=[|5,6,7,2,1,1,8,3,5,3|2,3,3,3,2,8,2,6,8,8|5,2,2,8,2,5,5,4,4,4|2,2,2,3,6,3,6,6,5,7|2,2,2,3,7,3,7,7,5,4|4,5,8,2,2,4,1,5,4,5|4,5,7,6,5,1,1,1,4,4|4,5,8,1,5,4,5,4,1,1|8,3,3,7,6,4,3,1,1,1|7,4,3,6,6,3,3,1,1,1|];
right = [26,14,15,10,10,0,4,0,0,0];
bottom = [11,8,7,3,3,9,0,19,0,19];
